p edge 376 366
e 1 2
e 1 3
e 1 4
e 1 5
e 1 6
e 1 7
e 1 8
e 1 9
e 1 10
e 1 11
e 1 12
e 1 13
e 1 14
e 1 15
e 1 16
e 1 17
e 1 18
e 1 19
e 1 20
e 1 21
e 1 22
e 1 23
e 1 24
e 1 25
e 1 26
e 1 27
e 1 28
e 1 29
e 1 30
e 1 31
e 1 32
e 1 33
e 1 34
e 35 36
e 35 37
e 35 38
e 35 39
e 35 40
e 35 41
e 35 42
e 35 43
e 35 44
e 35 45
e 35 46
e 35 47
e 35 48
e 35 49
e 35 50
e 35 51
e 35 52
e 35 53
e 35 54
e 35 55
e 35 56
e 35 57
e 35 58
e 35 59
e 35 60
e 35 61
e 35 62
e 35 63
e 35 64
e 35 65
e 35 66
e 35 67
e 35 68
e 35 69
e 35 70
e 35 71
e 35 72
e 35 73
e 35 74
e 35 75
e 35 76
e 35 77
e 35 78
e 35 79
e 35 80
e 35 81
e 35 82
e 35 83
e 35 84
e 85 86
e 85 87
e 85 88
e 85 89
e 85 90
e 85 91
e 85 92
e 85 93
e 85 94
e 85 95
e 85 96
e 85 97
e 85 98
e 85 99
e 85 100
e 85 101
e 85 102
e 85 103
e 85 104
e 85 105
e 85 106
e 85 107
e 85 108
e 85 109
e 85 110
e 85 111
e 85 112
e 85 113
e 85 114
e 85 115
e 85 116
e 85 117
e 85 118
e 85 119
e 85 120
e 121 122
e 121 123
e 121 124
e 121 125
e 121 126
e 121 127
e 121 128
e 121 129
e 121 130
e 121 131
e 121 132
e 121 133
e 121 134
e 121 135
e 121 136
e 121 137
e 121 138
e 121 139
e 121 140
e 121 141
e 121 142
e 121 143
e 121 144
e 121 145
e 121 146
e 121 147
e 121 148
e 121 149
e 121 150
e 121 151
e 121 152
e 121 153
e 121 154
e 121 155
e 121 156
e 121 157
e 121 158
e 121 159
e 121 160
e 121 161
e 162 163
e 162 164
e 162 165
e 162 166
e 162 167
e 162 168
e 162 169
e 162 170
e 162 171
e 162 172
e 162 173
e 162 174
e 162 175
e 162 176
e 162 177
e 162 178
e 162 179
e 162 180
e 162 181
e 162 182
e 162 183
e 162 184
e 162 185
e 162 186
e 162 187
e 162 188
e 162 189
e 162 190
e 162 191
e 162 192
e 162 193
e 162 194
e 162 195
e 162 196
e 197 198
e 197 199
e 197 200
e 197 201
e 197 202
e 197 203
e 197 204
e 197 205
e 197 206
e 197 207
e 197 208
e 197 209
e 197 210
e 197 211
e 197 212
e 197 213
e 197 214
e 197 215
e 197 216
e 197 217
e 197 218
e 197 219
e 197 220
e 197 221
e 197 222
e 197 223
e 197 224
e 197 225
e 197 226
e 197 227
e 197 228
e 197 229
e 197 230
e 197 231
e 197 232
e 197 233
e 197 234
e 197 235
e 197 236
e 197 237
e 197 238
e 197 239
e 197 240
e 197 241
e 242 243
e 242 244
e 242 245
e 242 246
e 242 247
e 242 248
e 242 249
e 242 250
e 242 251
e 242 252
e 242 253
e 242 254
e 242 255
e 242 256
e 242 257
e 242 258
e 242 259
e 242 260
e 242 261
e 242 262
e 242 263
e 242 264
e 242 265
e 242 266
e 242 267
e 242 268
e 242 269
e 242 270
e 242 271
e 242 272
e 242 273
e 242 274
e 242 275
e 242 276
e 242 277
e 242 278
e 242 279
e 242 280
e 242 281
e 242 282
e 242 283
e 242 284
e 285 286
e 285 287
e 285 288
e 285 289
e 285 290
e 285 291
e 285 292
e 285 293
e 285 294
e 285 295
e 285 296
e 285 297
e 285 298
e 285 299
e 285 300
e 285 301
e 285 302
e 285 303
e 285 304
e 285 305
e 285 306
e 285 307
e 285 308
e 285 309
e 285 310
e 285 311
e 285 312
e 285 313
e 285 314
e 285 315
e 285 316
e 285 317
e 285 318
e 285 319
e 285 320
e 285 321
e 285 322
e 285 323
e 285 324
e 285 325
e 285 326
e 285 327
e 285 328
e 329 330
e 329 331
e 329 332
e 329 333
e 329 334
e 329 335
e 329 336
e 329 337
e 329 338
e 329 339
e 329 340
e 329 341
e 329 342
e 329 343
e 329 344
e 329 345
e 329 346
e 329 347
e 329 348
e 329 349
e 329 350
e 329 351
e 329 352
e 353 354
e 353 355
e 353 356
e 353 357
e 353 358
e 353 359
e 353 360
e 353 361
e 353 362
e 353 363
e 353 364
e 353 365
e 353 366
e 353 367
e 353 368
e 353 369
e 353 370
e 353 371
e 353 372
e 353 373
e 353 374
e 353 375
e 353 376
